# Solution for model GNN
# Objective value = 3.0179455169175395e+00
A[0,0] 1
A[0,1] 1
A[0,2] 0
A[0,3] 0
A[0,4] 1
A[0,5] 1
A[1,0] 1
A[1,1] 1
A[1,2] 1
A[1,3] 0
A[1,4] 0
A[1,5] 1
A[2,0] 0
A[2,1] 1
A[2,2] 1
A[2,3] 1
A[2,4] 1
A[2,5] 0
A[3,0] 0
A[3,1] 0
A[3,2] 1
A[3,3] 1
A[3,4] 1
A[3,5] 1
A[4,0] 1
A[4,1] 0
A[4,2] 1
A[4,3] 1
A[4,4] 1
A[4,5] 0
A[5,0] 1
A[5,1] 1
A[5,2] 0
A[5,3] 1
A[5,4] 0
A[5,5] 1
x[0,0] 1
x[0,1] 0
x[0,2] 0
x[0,3] 0
x[0,4] 0
x[0,5] 0
x[0,6] 0
x[0,7] 1
x[0,8] 0
x[0,9] 0
x[0,10] 1
x[0,11] 0
x[0,12] 0
x[0,13] 0
x[1,0] 1
x[1,1] 0
x[1,2] 0
x[1,3] 0
x[1,4] 0
x[1,5] 0
x[1,6] 0
x[1,7] 1
x[1,8] 0
x[1,9] 0
x[1,10] 1
x[1,11] 0
x[1,12] 0
x[1,13] 0
x[2,0] 1
x[2,1] 0
x[2,2] 0
x[2,3] 0
x[2,4] 0
x[2,5] 0
x[2,6] 0
x[2,7] 1
x[2,8] 0
x[2,9] 0
x[2,10] 1
x[2,11] 0
x[2,12] 0
x[2,13] 0
x[3,0] 1
x[3,1] 0
x[3,2] 0
x[3,3] 0
x[3,4] 0
x[3,5] 0
x[3,6] 0
x[3,7] 1
x[3,8] 0
x[3,9] 0
x[3,10] 1
x[3,11] 0
x[3,12] 0
x[3,13] 0
x[4,0] 1
x[4,1] 0
x[4,2] 0
x[4,3] 0
x[4,4] 0
x[4,5] 0
x[4,6] 0
x[4,7] 1
x[4,8] 0
x[4,9] 0
x[4,10] 1
x[4,11] 0
x[4,12] 0
x[4,13] 0
x[5,0] 1
x[5,1] 0
x[5,2] 0
x[5,3] 0
x[5,4] 0
x[5,5] 0
x[5,6] 0
x[5,7] 1
x[5,8] 0
x[5,9] 0
x[5,10] 1
x[5,11] 0
x[5,12] 0
x[5,13] 0
c[0,0,0] 0
c[0,0,1] 0
c[0,0,2] 0
c[0,0,3] 0
c[0,0,4] 0
c[0,0,5] 0
c[0,0,6] 0
c[0,0,7] 0
c[0,0,8] 0
c[0,0,9] 0
c[0,0,10] 0
c[0,0,11] 0
c[0,0,12] 0
c[0,0,13] 0
c[0,0,14] 0
c[0,0,15] 0
c[0,0,16] 0
c[0,0,17] 0
c[0,0,18] 0
c[0,0,19] 0
c[0,0,20] 0
c[0,0,21] 0
c[0,0,22] 0
c[0,0,23] 0
c[0,0,24] 1
c[0,1,0] 0
c[0,1,1] 0
c[0,1,2] 0
c[0,1,3] 0
c[0,1,4] 0
c[0,1,5] 0
c[0,1,6] 0
c[0,1,7] 0
c[0,1,8] 0
c[0,1,9] 0
c[0,1,10] 0
c[0,1,11] 0
c[0,1,12] 0
c[0,1,13] 0
c[0,1,14] 0
c[0,1,15] 0
c[0,1,16] 0
c[0,1,17] 0
c[0,1,18] 0
c[0,1,19] 0
c[0,1,20] 0
c[0,1,21] 0
c[0,1,22] 0
c[0,1,23] 0
c[0,1,24] 1
c[0,2,0] 0
c[0,2,1] 0
c[0,2,2] 0
c[0,2,3] 0
c[0,2,4] 0
c[0,2,5] 0
c[0,2,6] 0
c[0,2,7] 0
c[0,2,8] 0
c[0,2,9] 0
c[0,2,10] 0
c[0,2,11] 0
c[0,2,12] 0
c[0,2,13] 0
c[0,2,14] 0
c[0,2,15] 0
c[0,2,16] 0
c[0,2,17] 0
c[0,2,18] 0
c[0,2,19] 0
c[0,2,20] 0
c[0,2,21] 0
c[0,2,22] 0
c[0,2,23] 0
c[0,2,24] 1
c[0,3,0] 0
c[0,3,1] 0
c[0,3,2] 0
c[0,3,3] 0
c[0,3,4] 0
c[0,3,5] 0
c[0,3,6] 0
c[0,3,7] 0
c[0,3,8] 0
c[0,3,9] 0
c[0,3,10] 0
c[0,3,11] 0
c[0,3,12] 0
c[0,3,13] 0
c[0,3,14] 0
c[0,3,15] 0
c[0,3,16] 0
c[0,3,17] 0
c[0,3,18] 0
c[0,3,19] 0
c[0,3,20] 0
c[0,3,21] 0
c[0,3,22] 0
c[0,3,23] 0
c[0,3,24] 1
c[0,4,0] 0
c[0,4,1] 0
c[0,4,2] 0
c[0,4,3] 0
c[0,4,4] 0
c[0,4,5] 0
c[0,4,6] 0
c[0,4,7] 0
c[0,4,8] 0
c[0,4,9] 0
c[0,4,10] 0
c[0,4,11] 0
c[0,4,12] 0
c[0,4,13] 0
c[0,4,14] 0
c[0,4,15] 0
c[0,4,16] 0
c[0,4,17] 0
c[0,4,18] 0
c[0,4,19] 0
c[0,4,20] 0
c[0,4,21] 0
c[0,4,22] 0
c[0,4,23] 0
c[0,4,24] 1
c[0,5,0] 0
c[0,5,1] 0
c[0,5,2] 0
c[0,5,3] 0
c[0,5,4] 0
c[0,5,5] 0
c[0,5,6] 0
c[0,5,7] 0
c[0,5,8] 0
c[0,5,9] 0
c[0,5,10] 0
c[0,5,11] 0
c[0,5,12] 0
c[0,5,13] 0
c[0,5,14] 0
c[0,5,15] 0
c[0,5,16] 0
c[0,5,17] 0
c[0,5,18] 0
c[0,5,19] 0
c[0,5,20] 0
c[0,5,21] 0
c[0,5,22] 0
c[0,5,23] 0
c[0,5,24] 1
c[1,0,0] 0
c[1,0,1] 0
c[1,0,2] 0
c[1,0,3] 0
c[1,0,4] 0
c[1,0,5] 0
c[1,0,6] 0
c[1,0,7] 0
c[1,0,8] 0
c[1,0,9] 0
c[1,0,10] 0
c[1,0,11] 0
c[1,0,12] 0
c[1,0,13] 0
c[1,0,14] 0
c[1,0,15] 0
c[1,0,16] 0
c[1,0,17] 0
c[1,0,18] 0
c[1,0,19] 0
c[1,0,20] 0
c[1,0,21] 0
c[1,0,22] 0
c[1,0,23] 0
c[1,0,24] 1
c[1,1,0] 0
c[1,1,1] 0
c[1,1,2] 0
c[1,1,3] 0
c[1,1,4] 0
c[1,1,5] 0
c[1,1,6] 0
c[1,1,7] 0
c[1,1,8] 0
c[1,1,9] 0
c[1,1,10] 0
c[1,1,11] 0
c[1,1,12] 0
c[1,1,13] 0
c[1,1,14] 0
c[1,1,15] 0
c[1,1,16] 0
c[1,1,17] 0
c[1,1,18] 0
c[1,1,19] 0
c[1,1,20] 0
c[1,1,21] 0
c[1,1,22] 0
c[1,1,23] 0
c[1,1,24] 1
c[1,2,0] 0
c[1,2,1] 0
c[1,2,2] 0
c[1,2,3] 0
c[1,2,4] 0
c[1,2,5] 0
c[1,2,6] 0
c[1,2,7] 0
c[1,2,8] 0
c[1,2,9] 0
c[1,2,10] 0
c[1,2,11] 0
c[1,2,12] 0
c[1,2,13] 0
c[1,2,14] 0
c[1,2,15] 0
c[1,2,16] 0
c[1,2,17] 0
c[1,2,18] 0
c[1,2,19] 0
c[1,2,20] 0
c[1,2,21] 0
c[1,2,22] 0
c[1,2,23] 0
c[1,2,24] 1
c[1,3,0] 0
c[1,3,1] 0
c[1,3,2] 0
c[1,3,3] 0
c[1,3,4] 0
c[1,3,5] 0
c[1,3,6] 0
c[1,3,7] 0
c[1,3,8] 0
c[1,3,9] 0
c[1,3,10] 0
c[1,3,11] 0
c[1,3,12] 0
c[1,3,13] 0
c[1,3,14] 0
c[1,3,15] 0
c[1,3,16] 0
c[1,3,17] 0
c[1,3,18] 0
c[1,3,19] 0
c[1,3,20] 0
c[1,3,21] 0
c[1,3,22] 0
c[1,3,23] 0
c[1,3,24] 1
c[1,4,0] 0
c[1,4,1] 0
c[1,4,2] 0
c[1,4,3] 0
c[1,4,4] 0
c[1,4,5] 0
c[1,4,6] 0
c[1,4,7] 0
c[1,4,8] 0
c[1,4,9] 0
c[1,4,10] 0
c[1,4,11] 0
c[1,4,12] 0
c[1,4,13] 0
c[1,4,14] 0
c[1,4,15] 0
c[1,4,16] 0
c[1,4,17] 0
c[1,4,18] 0
c[1,4,19] 0
c[1,4,20] 0
c[1,4,21] 0
c[1,4,22] 0
c[1,4,23] 0
c[1,4,24] 1
c[1,5,0] 0
c[1,5,1] 0
c[1,5,2] 0
c[1,5,3] 0
c[1,5,4] 0
c[1,5,5] 0
c[1,5,6] 0
c[1,5,7] 0
c[1,5,8] 0
c[1,5,9] 0
c[1,5,10] 0
c[1,5,11] 0
c[1,5,12] 0
c[1,5,13] 0
c[1,5,14] 0
c[1,5,15] 0
c[1,5,16] 0
c[1,5,17] 0
c[1,5,18] 0
c[1,5,19] 0
c[1,5,20] 0
c[1,5,21] 0
c[1,5,22] 0
c[1,5,23] 0
c[1,5,24] 1
c[2,0,0] 0
c[2,0,1] 0
c[2,0,2] 0
c[2,0,3] 0
c[2,0,4] 0
c[2,0,5] 0
c[2,0,6] 0
c[2,0,7] 0
c[2,0,8] 0
c[2,0,9] 0
c[2,0,10] 0
c[2,0,11] 0
c[2,0,12] 0
c[2,0,13] 0
c[2,0,14] 0
c[2,0,15] 0
c[2,0,16] 0
c[2,0,17] 0
c[2,0,18] 0
c[2,0,19] 0
c[2,0,20] 0
c[2,0,21] 0
c[2,0,22] 0
c[2,0,23] 0
c[2,0,24] 1
c[2,1,0] 0
c[2,1,1] 0
c[2,1,2] 0
c[2,1,3] 0
c[2,1,4] 0
c[2,1,5] 0
c[2,1,6] 0
c[2,1,7] 0
c[2,1,8] 0
c[2,1,9] 0
c[2,1,10] 0
c[2,1,11] 0
c[2,1,12] 0
c[2,1,13] 0
c[2,1,14] 0
c[2,1,15] 0
c[2,1,16] 0
c[2,1,17] 0
c[2,1,18] 0
c[2,1,19] 0
c[2,1,20] 0
c[2,1,21] 0
c[2,1,22] 0
c[2,1,23] 0
c[2,1,24] 1
c[2,2,0] 0
c[2,2,1] 0
c[2,2,2] 0
c[2,2,3] 0
c[2,2,4] 0
c[2,2,5] 0
c[2,2,6] 0
c[2,2,7] 0
c[2,2,8] 0
c[2,2,9] 0
c[2,2,10] 0
c[2,2,11] 0
c[2,2,12] 0
c[2,2,13] 0
c[2,2,14] 0
c[2,2,15] 0
c[2,2,16] 0
c[2,2,17] 0
c[2,2,18] 0
c[2,2,19] 0
c[2,2,20] 0
c[2,2,21] 0
c[2,2,22] 0
c[2,2,23] 0
c[2,2,24] 1
c[2,3,0] 0
c[2,3,1] 0
c[2,3,2] 0
c[2,3,3] 0
c[2,3,4] 0
c[2,3,5] 0
c[2,3,6] 0
c[2,3,7] 0
c[2,3,8] 0
c[2,3,9] 0
c[2,3,10] 0
c[2,3,11] 0
c[2,3,12] 0
c[2,3,13] 0
c[2,3,14] 0
c[2,3,15] 0
c[2,3,16] 0
c[2,3,17] 0
c[2,3,18] 0
c[2,3,19] 0
c[2,3,20] 0
c[2,3,21] 0
c[2,3,22] 0
c[2,3,23] 0
c[2,3,24] 1
c[2,4,0] 0
c[2,4,1] 0
c[2,4,2] 0
c[2,4,3] 0
c[2,4,4] 0
c[2,4,5] 0
c[2,4,6] 0
c[2,4,7] 0
c[2,4,8] 0
c[2,4,9] 0
c[2,4,10] 0
c[2,4,11] 0
c[2,4,12] 0
c[2,4,13] 0
c[2,4,14] 0
c[2,4,15] 0
c[2,4,16] 0
c[2,4,17] 0
c[2,4,18] 0
c[2,4,19] 0
c[2,4,20] 0
c[2,4,21] 0
c[2,4,22] 0
c[2,4,23] 0
c[2,4,24] 1
c[2,5,0] 0
c[2,5,1] 0
c[2,5,2] 0
c[2,5,3] 0
c[2,5,4] 0
c[2,5,5] 0
c[2,5,6] 0
c[2,5,7] 0
c[2,5,8] 0
c[2,5,9] 0
c[2,5,10] 0
c[2,5,11] 0
c[2,5,12] 0
c[2,5,13] 0
c[2,5,14] 0
c[2,5,15] 0
c[2,5,16] 0
c[2,5,17] 0
c[2,5,18] 0
c[2,5,19] 0
c[2,5,20] 0
c[2,5,21] 0
c[2,5,22] 0
c[2,5,23] 0
c[2,5,24] 1
c[3,0,0] 0
c[3,0,1] 0
c[3,0,2] 0
c[3,0,3] 0
c[3,0,4] 0
c[3,0,5] 0
c[3,0,6] 0
c[3,0,7] 0
c[3,0,8] 0
c[3,0,9] 0
c[3,0,10] 0
c[3,0,11] 0
c[3,0,12] 0
c[3,0,13] 0
c[3,0,14] 0
c[3,0,15] 0
c[3,0,16] 0
c[3,0,17] 0
c[3,0,18] 0
c[3,0,19] 0
c[3,0,20] 0
c[3,0,21] 0
c[3,0,22] 0
c[3,0,23] 0
c[3,0,24] 1
c[3,1,0] 0
c[3,1,1] 0
c[3,1,2] 0
c[3,1,3] 0
c[3,1,4] 0
c[3,1,5] 0
c[3,1,6] 0
c[3,1,7] 0
c[3,1,8] 0
c[3,1,9] 0
c[3,1,10] 0
c[3,1,11] 0
c[3,1,12] 0
c[3,1,13] 0
c[3,1,14] 0
c[3,1,15] 0
c[3,1,16] 0
c[3,1,17] 0
c[3,1,18] 0
c[3,1,19] 0
c[3,1,20] 0
c[3,1,21] 0
c[3,1,22] 0
c[3,1,23] 0
c[3,1,24] 1
c[3,2,0] 0
c[3,2,1] 0
c[3,2,2] 0
c[3,2,3] 0
c[3,2,4] 0
c[3,2,5] 0
c[3,2,6] 0
c[3,2,7] 0
c[3,2,8] 0
c[3,2,9] 0
c[3,2,10] 0
c[3,2,11] 0
c[3,2,12] 0
c[3,2,13] 0
c[3,2,14] 0
c[3,2,15] 0
c[3,2,16] 0
c[3,2,17] 0
c[3,2,18] 0
c[3,2,19] 0
c[3,2,20] 0
c[3,2,21] 0
c[3,2,22] 0
c[3,2,23] 0
c[3,2,24] 1
c[3,3,0] 0
c[3,3,1] 0
c[3,3,2] 0
c[3,3,3] 0
c[3,3,4] 0
c[3,3,5] 0
c[3,3,6] 0
c[3,3,7] 0
c[3,3,8] 0
c[3,3,9] 0
c[3,3,10] 0
c[3,3,11] 0
c[3,3,12] 0
c[3,3,13] 0
c[3,3,14] 0
c[3,3,15] 0
c[3,3,16] 0
c[3,3,17] 0
c[3,3,18] 0
c[3,3,19] 0
c[3,3,20] 0
c[3,3,21] 0
c[3,3,22] 0
c[3,3,23] 0
c[3,3,24] 1
c[3,4,0] 0
c[3,4,1] 0
c[3,4,2] 0
c[3,4,3] 0
c[3,4,4] 0
c[3,4,5] 0
c[3,4,6] 0
c[3,4,7] 0
c[3,4,8] 0
c[3,4,9] 0
c[3,4,10] 0
c[3,4,11] 0
c[3,4,12] 0
c[3,4,13] 0
c[3,4,14] 0
c[3,4,15] 0
c[3,4,16] 0
c[3,4,17] 0
c[3,4,18] 0
c[3,4,19] 0
c[3,4,20] 0
c[3,4,21] 0
c[3,4,22] 0
c[3,4,23] 0
c[3,4,24] 1
c[3,5,0] 0
c[3,5,1] 0
c[3,5,2] 0
c[3,5,3] 0
c[3,5,4] 0
c[3,5,5] 0
c[3,5,6] 0
c[3,5,7] 0
c[3,5,8] 0
c[3,5,9] 0
c[3,5,10] 0
c[3,5,11] 0
c[3,5,12] 0
c[3,5,13] 0
c[3,5,14] 0
c[3,5,15] 0
c[3,5,16] 0
c[3,5,17] 0
c[3,5,18] 0
c[3,5,19] 0
c[3,5,20] 0
c[3,5,21] 0
c[3,5,22] 0
c[3,5,23] 0
c[3,5,24] 1
c[4,0,0] 0
c[4,0,1] 0
c[4,0,2] 0
c[4,0,3] 0
c[4,0,4] 0
c[4,0,5] 0
c[4,0,6] 0
c[4,0,7] 0
c[4,0,8] 0
c[4,0,9] 0
c[4,0,10] 0
c[4,0,11] 0
c[4,0,12] 0
c[4,0,13] 0
c[4,0,14] 0
c[4,0,15] 0
c[4,0,16] 0
c[4,0,17] 0
c[4,0,18] 0
c[4,0,19] 0
c[4,0,20] 0
c[4,0,21] 0
c[4,0,22] 0
c[4,0,23] 0
c[4,0,24] 1
c[4,1,0] 0
c[4,1,1] 0
c[4,1,2] 0
c[4,1,3] 0
c[4,1,4] 0
c[4,1,5] 0
c[4,1,6] 0
c[4,1,7] 0
c[4,1,8] 0
c[4,1,9] 0
c[4,1,10] 0
c[4,1,11] 0
c[4,1,12] 0
c[4,1,13] 0
c[4,1,14] 0
c[4,1,15] 0
c[4,1,16] 0
c[4,1,17] 0
c[4,1,18] 0
c[4,1,19] 0
c[4,1,20] 0
c[4,1,21] 0
c[4,1,22] 0
c[4,1,23] 0
c[4,1,24] 1
c[4,2,0] 0
c[4,2,1] 0
c[4,2,2] 0
c[4,2,3] 0
c[4,2,4] 0
c[4,2,5] 0
c[4,2,6] 0
c[4,2,7] 0
c[4,2,8] 0
c[4,2,9] 0
c[4,2,10] 0
c[4,2,11] 0
c[4,2,12] 0
c[4,2,13] 0
c[4,2,14] 0
c[4,2,15] 0
c[4,2,16] 0
c[4,2,17] 0
c[4,2,18] 0
c[4,2,19] 0
c[4,2,20] 0
c[4,2,21] 0
c[4,2,22] 0
c[4,2,23] 0
c[4,2,24] 1
c[4,3,0] 0
c[4,3,1] 0
c[4,3,2] 0
c[4,3,3] 0
c[4,3,4] 0
c[4,3,5] 0
c[4,3,6] 0
c[4,3,7] 0
c[4,3,8] 0
c[4,3,9] 0
c[4,3,10] 0
c[4,3,11] 0
c[4,3,12] 0
c[4,3,13] 0
c[4,3,14] 0
c[4,3,15] 0
c[4,3,16] 0
c[4,3,17] 0
c[4,3,18] 0
c[4,3,19] 0
c[4,3,20] 0
c[4,3,21] 0
c[4,3,22] 0
c[4,3,23] 0
c[4,3,24] 1
c[4,4,0] 0
c[4,4,1] 0
c[4,4,2] 0
c[4,4,3] 0
c[4,4,4] 0
c[4,4,5] 0
c[4,4,6] 0
c[4,4,7] 0
c[4,4,8] 0
c[4,4,9] 0
c[4,4,10] 0
c[4,4,11] 0
c[4,4,12] 0
c[4,4,13] 0
c[4,4,14] 0
c[4,4,15] 0
c[4,4,16] 0
c[4,4,17] 0
c[4,4,18] 0
c[4,4,19] 0
c[4,4,20] 0
c[4,4,21] 0
c[4,4,22] 0
c[4,4,23] 0
c[4,4,24] 1
c[4,5,0] 0
c[4,5,1] 0
c[4,5,2] 0
c[4,5,3] 0
c[4,5,4] 0
c[4,5,5] 0
c[4,5,6] 0
c[4,5,7] 0
c[4,5,8] 0
c[4,5,9] 0
c[4,5,10] 0
c[4,5,11] 0
c[4,5,12] 0
c[4,5,13] 0
c[4,5,14] 0
c[4,5,15] 0
c[4,5,16] 0
c[4,5,17] 0
c[4,5,18] 0
c[4,5,19] 0
c[4,5,20] 0
c[4,5,21] 0
c[4,5,22] 0
c[4,5,23] 0
c[4,5,24] 1
c[5,0,0] 0
c[5,0,1] 0
c[5,0,2] 0
c[5,0,3] 0
c[5,0,4] 0
c[5,0,5] 0
c[5,0,6] 0
c[5,0,7] 0
c[5,0,8] 0
c[5,0,9] 0
c[5,0,10] 0
c[5,0,11] 0
c[5,0,12] 0
c[5,0,13] 0
c[5,0,14] 0
c[5,0,15] 0
c[5,0,16] 0
c[5,0,17] 0
c[5,0,18] 0
c[5,0,19] 0
c[5,0,20] 0
c[5,0,21] 0
c[5,0,22] 0
c[5,0,23] 0
c[5,0,24] 1
c[5,1,0] 0
c[5,1,1] 0
c[5,1,2] 0
c[5,1,3] 0
c[5,1,4] 0
c[5,1,5] 0
c[5,1,6] 0
c[5,1,7] 0
c[5,1,8] 0
c[5,1,9] 0
c[5,1,10] 0
c[5,1,11] 0
c[5,1,12] 0
c[5,1,13] 0
c[5,1,14] 0
c[5,1,15] 0
c[5,1,16] 0
c[5,1,17] 0
c[5,1,18] 0
c[5,1,19] 0
c[5,1,20] 0
c[5,1,21] 0
c[5,1,22] 0
c[5,1,23] 0
c[5,1,24] 1
c[5,2,0] 0
c[5,2,1] 0
c[5,2,2] 0
c[5,2,3] 0
c[5,2,4] 0
c[5,2,5] 0
c[5,2,6] 0
c[5,2,7] 0
c[5,2,8] 0
c[5,2,9] 0
c[5,2,10] 0
c[5,2,11] 0
c[5,2,12] 0
c[5,2,13] 0
c[5,2,14] 0
c[5,2,15] 0
c[5,2,16] 0
c[5,2,17] 0
c[5,2,18] 0
c[5,2,19] 0
c[5,2,20] 0
c[5,2,21] 0
c[5,2,22] 0
c[5,2,23] 0
c[5,2,24] 1
c[5,3,0] 0
c[5,3,1] 0
c[5,3,2] 0
c[5,3,3] 0
c[5,3,4] 0
c[5,3,5] 0
c[5,3,6] 0
c[5,3,7] 0
c[5,3,8] 0
c[5,3,9] 0
c[5,3,10] 0
c[5,3,11] 0
c[5,3,12] 0
c[5,3,13] 0
c[5,3,14] 0
c[5,3,15] 0
c[5,3,16] 0
c[5,3,17] 0
c[5,3,18] 0
c[5,3,19] 0
c[5,3,20] 0
c[5,3,21] 0
c[5,3,22] 0
c[5,3,23] 0
c[5,3,24] 1
c[5,4,0] 0
c[5,4,1] 0
c[5,4,2] 0
c[5,4,3] 0
c[5,4,4] 0
c[5,4,5] 0
c[5,4,6] 0
c[5,4,7] 0
c[5,4,8] 0
c[5,4,9] 0
c[5,4,10] 0
c[5,4,11] 0
c[5,4,12] 0
c[5,4,13] 0
c[5,4,14] 0
c[5,4,15] 0
c[5,4,16] 0
c[5,4,17] 0
c[5,4,18] 0
c[5,4,19] 0
c[5,4,20] 0
c[5,4,21] 0
c[5,4,22] 0
c[5,4,23] 0
c[5,4,24] 1
c[5,5,0] 0
c[5,5,1] 0
c[5,5,2] 0
c[5,5,3] 0
c[5,5,4] 0
c[5,5,5] 0
c[5,5,6] 0
c[5,5,7] 0
c[5,5,8] 0
c[5,5,9] 0
c[5,5,10] 0
c[5,5,11] 0
c[5,5,12] 0
c[5,5,13] 0
c[5,5,14] 0
c[5,5,15] 0
c[5,5,16] 0
c[5,5,17] 0
c[5,5,18] 0
c[5,5,19] 0
c[5,5,20] 0
c[5,5,21] 0
c[5,5,22] 0
c[5,5,23] 0
c[5,5,24] 1
b[0,0,0] 0
b[0,0,1] 0
b[0,0,2] 0
b[0,0,3] 0
b[0,0,4] 0
b[0,0,5] 0
b[0,0,6] 0
b[0,0,7] 0
b[0,0,8] 0
b[0,0,9] 0
b[0,0,10] 0
b[0,0,11] 0
b[0,0,12] 0
b[0,0,13] 0
b[0,1,0] 0
b[0,1,1] 0
b[0,1,2] 0
b[0,1,3] 0
b[0,1,4] 0
b[0,1,5] 0
b[0,1,6] 0
b[0,1,7] 0
b[0,1,8] 0
b[0,1,9] 0
b[0,1,10] 0
b[0,1,11] 0
b[0,1,12] 0
b[0,1,13] 0
b[0,2,0] 0
b[0,2,1] 0
b[0,2,2] 0
b[0,2,3] 0
b[0,2,4] 0
b[0,2,5] 0
b[0,2,6] 0
b[0,2,7] 0
b[0,2,8] 0
b[0,2,9] 0
b[0,2,10] 0
b[0,2,11] 0
b[0,2,12] 0
b[0,2,13] 0
b[0,3,0] 0
b[0,3,1] 0
b[0,3,2] 0
b[0,3,3] 0
b[0,3,4] 0
b[0,3,5] 0
b[0,3,6] 0
b[0,3,7] 0
b[0,3,8] 0
b[0,3,9] 0
b[0,3,10] 0
b[0,3,11] 0
b[0,3,12] 0
b[0,3,13] 0
b[0,4,0] 0
b[0,4,1] 0
b[0,4,2] 0
b[0,4,3] 0
b[0,4,4] 0
b[0,4,5] 0
b[0,4,6] 0
b[0,4,7] 0
b[0,4,8] 0
b[0,4,9] 0
b[0,4,10] 0
b[0,4,11] 0
b[0,4,12] 0
b[0,4,13] 0
b[0,5,0] 0
b[0,5,1] 0
b[0,5,2] 0
b[0,5,3] 0
b[0,5,4] 0
b[0,5,5] 0
b[0,5,6] 0
b[0,5,7] 0
b[0,5,8] 0
b[0,5,9] 0
b[0,5,10] 0
b[0,5,11] 0
b[0,5,12] 0
b[0,5,13] 0
b[1,0,0] 0
b[1,0,1] 0
b[1,0,2] 0
b[1,0,3] 0
b[1,0,4] 0
b[1,0,5] 0
b[1,0,6] 0
b[1,0,7] 0
b[1,0,8] 0
b[1,0,9] 0
b[1,0,10] 0
b[1,0,11] 0
b[1,0,12] 0
b[1,0,13] 0
b[1,1,0] 0
b[1,1,1] 0
b[1,1,2] 0
b[1,1,3] 0
b[1,1,4] 0
b[1,1,5] 0
b[1,1,6] 0
b[1,1,7] 0
b[1,1,8] 0
b[1,1,9] 0
b[1,1,10] 0
b[1,1,11] 0
b[1,1,12] 0
b[1,1,13] 0
b[1,2,0] 0
b[1,2,1] 0
b[1,2,2] 0
b[1,2,3] 0
b[1,2,4] 0
b[1,2,5] 0
b[1,2,6] 0
b[1,2,7] 0
b[1,2,8] 0
b[1,2,9] 0
b[1,2,10] 0
b[1,2,11] 0
b[1,2,12] 0
b[1,2,13] 0
b[1,3,0] 0
b[1,3,1] 0
b[1,3,2] 0
b[1,3,3] 0
b[1,3,4] 0
b[1,3,5] 0
b[1,3,6] 0
b[1,3,7] 0
b[1,3,8] 0
b[1,3,9] 0
b[1,3,10] 0
b[1,3,11] 0
b[1,3,12] 0
b[1,3,13] 0
b[1,4,0] 0
b[1,4,1] 0
b[1,4,2] 0
b[1,4,3] 0
b[1,4,4] 0
b[1,4,5] 0
b[1,4,6] 0
b[1,4,7] 0
b[1,4,8] 0
b[1,4,9] 0
b[1,4,10] 0
b[1,4,11] 0
b[1,4,12] 0
b[1,4,13] 0
b[1,5,0] 0
b[1,5,1] 0
b[1,5,2] 0
b[1,5,3] 0
b[1,5,4] 0
b[1,5,5] 0
b[1,5,6] 0
b[1,5,7] 0
b[1,5,8] 0
b[1,5,9] 0
b[1,5,10] 0
b[1,5,11] 0
b[1,5,12] 0
b[1,5,13] 0
b[2,0,0] 0
b[2,0,1] 0
b[2,0,2] 0
b[2,0,3] 0
b[2,0,4] 0
b[2,0,5] 0
b[2,0,6] 0
b[2,0,7] 0
b[2,0,8] 0
b[2,0,9] 0
b[2,0,10] 0
b[2,0,11] 0
b[2,0,12] 0
b[2,0,13] 0
b[2,1,0] 0
b[2,1,1] 0
b[2,1,2] 0
b[2,1,3] 0
b[2,1,4] 0
b[2,1,5] 0
b[2,1,6] 0
b[2,1,7] 0
b[2,1,8] 0
b[2,1,9] 0
b[2,1,10] 0
b[2,1,11] 0
b[2,1,12] 0
b[2,1,13] 0
b[2,2,0] 0
b[2,2,1] 0
b[2,2,2] 0
b[2,2,3] 0
b[2,2,4] 0
b[2,2,5] 0
b[2,2,6] 0
b[2,2,7] 0
b[2,2,8] 0
b[2,2,9] 0
b[2,2,10] 0
b[2,2,11] 0
b[2,2,12] 0
b[2,2,13] 0
b[2,3,0] 0
b[2,3,1] 0
b[2,3,2] 0
b[2,3,3] 0
b[2,3,4] 0
b[2,3,5] 0
b[2,3,6] 0
b[2,3,7] 0
b[2,3,8] 0
b[2,3,9] 0
b[2,3,10] 0
b[2,3,11] 0
b[2,3,12] 0
b[2,3,13] 0
b[2,4,0] 0
b[2,4,1] 0
b[2,4,2] 0
b[2,4,3] 0
b[2,4,4] 0
b[2,4,5] 0
b[2,4,6] 0
b[2,4,7] 0
b[2,4,8] 0
b[2,4,9] 0
b[2,4,10] 0
b[2,4,11] 0
b[2,4,12] 0
b[2,4,13] 0
b[2,5,0] 0
b[2,5,1] 0
b[2,5,2] 0
b[2,5,3] 0
b[2,5,4] 0
b[2,5,5] 0
b[2,5,6] 0
b[2,5,7] 0
b[2,5,8] 0
b[2,5,9] 0
b[2,5,10] 0
b[2,5,11] 0
b[2,5,12] 0
b[2,5,13] 0
b[3,0,0] 0
b[3,0,1] 0
b[3,0,2] 0
b[3,0,3] 0
b[3,0,4] 0
b[3,0,5] 0
b[3,0,6] 0
b[3,0,7] 0
b[3,0,8] 0
b[3,0,9] 0
b[3,0,10] 0
b[3,0,11] 0
b[3,0,12] 0
b[3,0,13] 0
b[3,1,0] 0
b[3,1,1] 0
b[3,1,2] 0
b[3,1,3] 0
b[3,1,4] 0
b[3,1,5] 0
b[3,1,6] 0
b[3,1,7] 0
b[3,1,8] 0
b[3,1,9] 0
b[3,1,10] 0
b[3,1,11] 0
b[3,1,12] 0
b[3,1,13] 0
b[3,2,0] 0
b[3,2,1] 0
b[3,2,2] 0
b[3,2,3] 0
b[3,2,4] 0
b[3,2,5] 0
b[3,2,6] 0
b[3,2,7] 0
b[3,2,8] 0
b[3,2,9] 0
b[3,2,10] 0
b[3,2,11] 0
b[3,2,12] 0
b[3,2,13] 0
b[3,3,0] 0
b[3,3,1] 0
b[3,3,2] 0
b[3,3,3] 0
b[3,3,4] 0
b[3,3,5] 0
b[3,3,6] 0
b[3,3,7] 0
b[3,3,8] 0
b[3,3,9] 0
b[3,3,10] 0
b[3,3,11] 0
b[3,3,12] 0
b[3,3,13] 0
b[3,4,0] 0
b[3,4,1] 0
b[3,4,2] 0
b[3,4,3] 0
b[3,4,4] 0
b[3,4,5] 0
b[3,4,6] 0
b[3,4,7] 0
b[3,4,8] 0
b[3,4,9] 0
b[3,4,10] 0
b[3,4,11] 0
b[3,4,12] 0
b[3,4,13] 0
b[3,5,0] 0
b[3,5,1] 0
b[3,5,2] 0
b[3,5,3] 0
b[3,5,4] 0
b[3,5,5] 0
b[3,5,6] 0
b[3,5,7] 0
b[3,5,8] 0
b[3,5,9] 0
b[3,5,10] 0
b[3,5,11] 0
b[3,5,12] 0
b[3,5,13] 0
b[4,0,0] 0
b[4,0,1] 0
b[4,0,2] 0
b[4,0,3] 0
b[4,0,4] 0
b[4,0,5] 0
b[4,0,6] 0
b[4,0,7] 0
b[4,0,8] 0
b[4,0,9] 0
b[4,0,10] 0
b[4,0,11] 0
b[4,0,12] 0
b[4,0,13] 0
b[4,1,0] 0
b[4,1,1] 0
b[4,1,2] 0
b[4,1,3] 0
b[4,1,4] 0
b[4,1,5] 0
b[4,1,6] 0
b[4,1,7] 0
b[4,1,8] 0
b[4,1,9] 0
b[4,1,10] 0
b[4,1,11] 0
b[4,1,12] 0
b[4,1,13] 0
b[4,2,0] 0
b[4,2,1] 0
b[4,2,2] 0
b[4,2,3] 0
b[4,2,4] 0
b[4,2,5] 0
b[4,2,6] 0
b[4,2,7] 0
b[4,2,8] 0
b[4,2,9] 0
b[4,2,10] 0
b[4,2,11] 0
b[4,2,12] 0
b[4,2,13] 0
b[4,3,0] 0
b[4,3,1] 0
b[4,3,2] 0
b[4,3,3] 0
b[4,3,4] 0
b[4,3,5] 0
b[4,3,6] 0
b[4,3,7] 0
b[4,3,8] 0
b[4,3,9] 0
b[4,3,10] 0
b[4,3,11] 0
b[4,3,12] 0
b[4,3,13] 0
b[4,4,0] 0
b[4,4,1] 0
b[4,4,2] 0
b[4,4,3] 0
b[4,4,4] 0
b[4,4,5] 0
b[4,4,6] 0
b[4,4,7] 0
b[4,4,8] 0
b[4,4,9] 0
b[4,4,10] 0
b[4,4,11] 0
b[4,4,12] 0
b[4,4,13] 0
b[4,5,0] 0
b[4,5,1] 0
b[4,5,2] 0
b[4,5,3] 0
b[4,5,4] 0
b[4,5,5] 0
b[4,5,6] 0
b[4,5,7] 0
b[4,5,8] 0
b[4,5,9] 0
b[4,5,10] 0
b[4,5,11] 0
b[4,5,12] 0
b[4,5,13] 0
b[5,0,0] 0
b[5,0,1] 0
b[5,0,2] 0
b[5,0,3] 0
b[5,0,4] 0
b[5,0,5] 0
b[5,0,6] 0
b[5,0,7] 0
b[5,0,8] 0
b[5,0,9] 0
b[5,0,10] 0
b[5,0,11] 0
b[5,0,12] 0
b[5,0,13] 0
b[5,1,0] 0
b[5,1,1] 0
b[5,1,2] 0
b[5,1,3] 0
b[5,1,4] 0
b[5,1,5] 0
b[5,1,6] 0
b[5,1,7] 0
b[5,1,8] 0
b[5,1,9] 0
b[5,1,10] 0
b[5,1,11] 0
b[5,1,12] 0
b[5,1,13] 0
b[5,2,0] 0
b[5,2,1] 0
b[5,2,2] 0
b[5,2,3] 0
b[5,2,4] 0
b[5,2,5] 0
b[5,2,6] 0
b[5,2,7] 0
b[5,2,8] 0
b[5,2,9] 0
b[5,2,10] 0
b[5,2,11] 0
b[5,2,12] 0
b[5,2,13] 0
b[5,3,0] 0
b[5,3,1] 0
b[5,3,2] 0
b[5,3,3] 0
b[5,3,4] 0
b[5,3,5] 0
b[5,3,6] 0
b[5,3,7] 0
b[5,3,8] 0
b[5,3,9] 0
b[5,3,10] 0
b[5,3,11] 0
b[5,3,12] 0
b[5,3,13] 0
b[5,4,0] 0
b[5,4,1] 0
b[5,4,2] 0
b[5,4,3] 0
b[5,4,4] 0
b[5,4,5] 0
b[5,4,6] 0
b[5,4,7] 0
b[5,4,8] 0
b[5,4,9] 0
b[5,4,10] 0
b[5,4,11] 0
b[5,4,12] 0
b[5,4,13] 0
b[5,5,0] 0
b[5,5,1] 0
b[5,5,2] 0
b[5,5,3] 0
b[5,5,4] 0
b[5,5,5] 0
b[5,5,6] 0
b[5,5,7] 0
b[5,5,8] 0
b[5,5,9] 0
b[5,5,10] 0
b[5,5,11] 0
b[5,5,12] 0
b[5,5,13] 0
sp[0,0] 2.5000000000000011e-01
sp[0,1] 0.25
sp[0,2] 0.25
sp[0,3] 2.5000000000000017e-01
sp[0,4] 2.5000000000000389e-01
sp[0,5] 2.4999999999999956e-01
sp[1,0] 0.25
sp[1,1] 2.5000000000000011e-01
sp[1,2] 2.5000000000000050e-01
sp[1,3] 0.25
sp[1,4] 0.25
sp[1,5] 2.5000000000000566e-01
sp[2,0] 0.25
sp[2,1] 2.5000000000000050e-01
sp[2,2] 0.25
sp[2,3] 0.25
sp[2,4] 0.25
sp[2,5] 0.25
sp[3,0] 2.5000000000000017e-01
sp[3,1] 0.25
sp[3,2] 0.25
sp[3,3] 0.25
sp[3,4] 0.25
sp[3,5] 0.25
sp[4,0] 2.5000000000000389e-01
sp[4,1] 0.25
sp[4,2] 0.25
sp[4,3] 0.25
sp[4,4] 0.25
sp[4,5] 0.25
sp[5,0] 2.4999999999999956e-01
sp[5,1] 2.5000000000000566e-01
sp[5,2] 0.25
sp[5,3] 0.25
sp[5,4] 0.25
sp[5,5] 0.25
d_plus[0] 4
d_plus[1] 4
d_plus[2] 4
d_plus[3] 4
d_plus[4] 4
d_plus[5] 4
p[0,0] 24
p[0,1] 24
p[0,2] 24
p[0,3] 24
p[0,4] 24
p[0,5] 24
p[1,0] 24
p[1,1] 24
p[1,2] 24
p[1,3] 24
p[1,4] 24
p[1,5] 24
p[2,0] 24
p[2,1] 24
p[2,2] 24
p[2,3] 24
p[2,4] 24
p[2,5] 24
p[3,0] 24
p[3,1] 24
p[3,2] 24
p[3,3] 24
p[3,4] 24
p[3,5] 24
p[4,0] 24
p[4,1] 24
p[4,2] 24
p[4,3] 24
p[4,4] 24
p[4,5] 24
p[5,0] 24
p[5,1] 24
p[5,2] 24
p[5,3] 24
p[5,4] 24
p[5,5] 24
t[0,0] 2.5000000000000011e-01
t[0,1] 0.25
t[0,2] 0
t[0,3] 0
t[0,4] 2.5000000000000411e-01
t[0,5] 2.4999999999999875e-01
t[1,0] 0.25
t[1,1] 2.5000000000000011e-01
t[1,2] 2.5000000000000050e-01
t[1,3] 0
t[1,4] 0
t[1,5] 2.5000000000000572e-01
t[2,0] 0
t[2,1] 2.5000000000000050e-01
t[2,2] 0.25
t[2,3] 2.5000000000000039e-01
t[2,4] 2.5000000000000411e-01
t[2,5] -5.5303621789229525e-08
t[3,0] 0
t[3,1] 0
t[3,2] 2.4999999999999997e-01
t[3,3] 0.25
t[3,4] 2.4999999999999994e-01
t[3,5] 2.4999999999999972e-01
t[4,0] 2.5000000000000344e-01
t[4,1] 0
t[4,2] 2.5000000000000411e-01
t[4,3] 2.5000000000000044e-01
t[4,4] 0.25
t[4,5] 0
t[5,0] 2.4999999999999981e-01
t[5,1] 2.5000000000000572e-01
t[5,2] -5.7803621789229521e-08
t[5,3] 2.5000000000000144e-01
t[5,4] 0
t[5,5] 0.25
h_prime[0,0] 2.5229255482544310e-01
h_prime[0,1] 8.8376446068303949e-01
h_prime[0,2] 5.6160795688619491e-01
h_prime[0,3] 4.1103753447546026e-01
h_prime[0,4] 0
h_prime[0,5] 0
h_prime[0,6] 0
h_prime[0,7] 7.3808294534695884e-01
h_prime[0,8] 7.2979655861846326e-01
h_prime[0,9] 5.6686103343169814e-03
h_prime[0,10] 6.6769409924630319e-02
h_prime[0,11] 6.2573838233957968e-01
h_prime[0,12] 0
h_prime[0,13] 0
h_prime[0,14] 2.0585633814326476e-01
h_prime[0,15] 1.8914774060116990e-02
h_prime[0,16] 0
h_prime[0,17] 6.6132088005534850e-01
h_prime[0,18] 2.3555725812801853e-02
h_prime[0,19] 2.5738466531022852e-01
h_prime[0,20] 0
h_prime[0,21] 0
h_prime[0,22] 0
h_prime[0,23] 0
h_prime[0,24] 0
h_prime[0,25] 1.7546117305745912e-01
h_prime[0,26] 1.6328081488600410e-01
h_prime[0,27] 3.0342526733866104e-01
h_prime[0,28] 4.6527095139040181e-01
h_prime[0,29] 1.7742702644307906e-01
h_prime[0,30] 6.3768477737912543e-01
h_prime[0,31] 4.2271741479647756e-01
h_prime[1,0] 2.5229255482554569e-01
h_prime[1,1] 8.8376446068287340e-01
h_prime[1,2] 5.6160795688629450e-01
h_prime[1,3] 4.1103753447532848e-01
h_prime[1,4] 0
h_prime[1,5] 0
h_prime[1,6] 0
h_prime[1,7] 7.3808294534683638e-01
h_prime[1,8] 7.2979655861854953e-01
h_prime[1,9] 5.6686103343960362e-03
h_prime[1,10] 6.6769409924746254e-02
h_prime[1,11] 6.2573838233948076e-01
h_prime[1,12] 0
h_prime[1,13] 0
h_prime[1,14] 2.0585633814335005e-01
h_prime[1,15] 1.8914774060236672e-02
h_prime[1,16] 0
h_prime[1,17] 6.6132088005543133e-01
h_prime[1,18] 2.3555725812912681e-02
h_prime[1,19] 2.5738466531038418e-01
h_prime[1,20] 0
h_prime[1,21] 0
h_prime[1,22] 0
h_prime[1,23] 0
h_prime[1,24] 0
h_prime[1,25] 1.7546117305755604e-01
h_prime[1,26] 1.6328081488609425e-01
h_prime[1,27] 3.0342526733875474e-01
h_prime[1,28] 0.465270951390269
h_prime[1,29] 1.7742702644318442e-01
h_prime[1,30] 6.3768477737903961e-01
h_prime[1,31] 4.2271741479635455e-01
h_prime[2,0] 2.5229253961139131e-01
h_prime[2,1] 8.8376440738867656e-01
h_prime[2,2] 5.6160792301930174e-01
h_prime[2,3] 4.1103750968827618e-01
h_prime[2,4] 0
h_prime[2,5] 0
h_prime[2,6] 0
h_prime[2,7] 7.3808290083776262e-01
h_prime[2,8] 7.2979651460917427e-01
h_prime[2,9] 5.6686099925572662e-03
h_prime[2,10] 6.6769405898309431e-02
h_prime[2,11] 6.2573834460519107e-01
h_prime[2,12] 0
h_prime[2,13] 0
h_prime[2,14] 2.0585632572946772e-01
h_prime[2,15] 1.8914772919620369e-02
h_prime[2,16] 0
h_prime[2,17] 6.6132084017538773e-01
h_prime[2,18] 2.3555724392417654e-02
h_prime[2,19] 2.5738464978915815e-01
h_prime[2,20] 0
h_prime[2,21] 9.7822091815746859e-09
h_prime[2,22] 0
h_prime[2,23] 0
h_prime[2,24] 0
h_prime[2,25] 1.7546118751216797e-01
h_prime[2,26] 1.6328080503967057e-01
h_prime[2,27] 3.0342526607680737e-01
h_prime[2,28] 4.6527092333274550e-01
h_prime[2,29] 1.7742701574369202e-01
h_prime[2,30] 6.3768473892433830e-01
h_prime[2,31] 4.2271738930496305e-01
h_prime[3,0] 2.5229255482554253e-01
h_prime[3,1] 8.8376446068287962e-01
h_prime[3,2] 5.6160795688628606e-01
h_prime[3,3] 4.1103753447534480e-01
h_prime[3,4] 0
h_prime[3,5] 0
h_prime[3,6] 0
h_prime[3,7] 7.3808294534682961e-01
h_prime[3,8] 7.2979655861855586e-01
h_prime[3,9] 5.6686537430887295e-03
h_prime[3,10] 6.6769409924738149e-02
h_prime[3,11] 6.2573838233948487e-01
h_prime[3,12] 0
h_prime[3,13] 0
h_prime[3,14] 2.0585633814336285e-01
h_prime[3,15] 1.8914774060267217e-02
h_prime[3,16] 0
h_prime[3,17] 0.661320880055436
h_prime[3,18] 2.3555725812904833e-02
h_prime[3,19] 2.5738466531038079e-01
h_prime[3,20] 0
h_prime[3,21] -1.2492220794528625e-07
h_prime[3,22] 0
h_prime[3,23] 0
h_prime[3,24] 0
h_prime[3,25] 1.7546117305756498e-01
h_prime[3,26] 1.6328081488608162e-01
h_prime[3,27] 3.0342526733875891e-01
h_prime[3,28] 4.6527095139026919e-01
h_prime[3,29] 1.7742702644320169e-01
h_prime[3,30] 6.3768477737905160e-01
h_prime[3,31] 4.2271741479635871e-01
h_prime[4,0] 2.5229255482554569e-01
h_prime[4,1] 8.8376446068287473e-01
h_prime[4,2] 5.6160795688629439e-01
h_prime[4,3] 4.1103753447532970e-01
h_prime[4,4] 0
h_prime[4,5] 0
h_prime[4,6] 0
h_prime[4,7] 7.3808294534683649e-01
h_prime[4,8] 7.2979655861855031e-01
h_prime[4,9] 5.6686103343936978e-03
h_prime[4,10] 6.6769409924745837e-02
h_prime[4,11] 0.625738382339482
h_prime[4,12] 0
h_prime[4,13] 0
h_prime[4,14] 2.0585633814335155e-01
h_prime[4,15] 1.8914774060251424e-02
h_prime[4,16] 0
h_prime[4,17] 6.6132088005543210e-01
h_prime[4,18] 2.3555725812912369e-02
h_prime[4,19] 2.5738466531038517e-01
h_prime[4,20] 0
h_prime[4,21] 0
h_prime[4,22] 0
h_prime[4,23] 0
h_prime[4,24] 0
h_prime[4,25] 1.7546117305755735e-01
h_prime[4,26] 1.6328081488609375e-01
h_prime[4,27] 0.303425267338755
h_prime[4,28] 4.6527095139026881e-01
h_prime[4,29] 1.7742702644318589e-01
h_prime[4,30] 6.3768477737904072e-01
h_prime[4,31] 4.2271741479635461e-01
h_prime[5,0] 2.5229262092635413e-01
h_prime[5,1] 8.8376458993555773e-01
h_prime[5,2] 5.6160810201205091e-01
h_prime[5,3] 4.1103756200429670e-01
h_prime[5,4] 0
h_prime[5,5] 0
h_prime[5,6] 0
h_prime[5,7] 7.3808312024472678e-01
h_prime[5,8] 7.2979665843500541e-01
h_prime[5,9] 5.6686103343936423e-03
h_prime[5,10] 6.6769421396374887e-02
h_prime[5,11] 6.2573842650077616e-01
h_prime[5,12] 0
h_prime[5,13] 0
h_prime[5,14] 2.0585618931397720e-01
h_prime[5,15] 1.8914558803172631e-02
h_prime[5,16] 0
h_prime[5,17] 6.6132094124354235e-01
h_prime[5,18] 2.3555685320083272e-02
h_prime[5,19] 2.5738460887805603e-01
h_prime[5,20] 0
h_prime[5,21] 1.1544302961491448e-07
h_prime[5,22] 0
h_prime[5,23] 0
h_prime[5,24] 0
h_prime[5,25] 1.7546120401290566e-01
h_prime[5,26] 1.6328086794071373e-01
h_prime[5,27] 3.0342525368504536e-01
h_prime[5,28] 4.6527109059908917e-01
h_prime[5,29] 1.7742691425464918e-01
h_prime[5,30] 6.3768478347100577e-01
h_prime[5,31] 4.2271755222999380e-01
s_0_0_GCN 0
z_0_0_GCN 1
s_0_1_GCN 0
z_0_1_GCN 1
s_0_2_GCN 0
z_0_2_GCN 1
s_0_3_GCN 0
z_0_3_GCN 1
s_0_4_GCN 0.024095827713565
z_0_4_GCN 0
s_0_5_GCN 5.4726786911361569e-02
z_0_5_GCN 0
s_0_6_GCN 2.0559313520777822e-01
z_0_6_GCN 0
s_0_7_GCN 0
z_0_7_GCN 1
s_0_8_GCN 0
z_0_8_GCN 1
s_0_9_GCN 0
z_0_9_GCN 1
s_0_10_GCN 0
z_0_10_GCN 1
s_0_11_GCN 0
z_0_11_GCN 1
s_0_12_GCN 2.1263800561366786e-02
z_0_12_GCN 0
s_0_13_GCN 1.6495451144861217e-01
z_0_13_GCN 0
s_0_14_GCN 0
z_0_14_GCN 1
s_0_15_GCN 0
z_0_15_GCN 1
s_0_16_GCN 2.0203471370027587e-01
z_0_16_GCN 0
s_0_17_GCN 0
z_0_17_GCN 1
s_0_18_GCN 0
z_0_18_GCN 1
s_0_19_GCN 0
z_0_19_GCN 1
s_0_20_GCN 7.7616091072552629e-01
z_0_20_GCN 0
s_0_21_GCN 6.7768767475954617e-02
z_0_21_GCN 0
s_0_22_GCN 3.6707946471860042e-01
z_0_22_GCN 0
s_0_23_GCN 2.4490813165896475e-01
z_0_23_GCN 0
s_0_24_GCN 4.5589824393404360e-01
z_0_24_GCN 0
s_0_25_GCN 0
z_0_25_GCN 1
s_0_26_GCN 0
z_0_26_GCN 1
s_0_27_GCN 0
z_0_27_GCN 1
s_0_28_GCN 0
z_0_28_GCN 1
s_0_29_GCN 0
z_0_29_GCN 1
s_0_30_GCN 0
z_0_30_GCN 1
s_0_31_GCN 0
z_0_31_GCN 1
s_1_0_GCN 0
z_1_0_GCN 1
s_1_1_GCN 0
z_1_1_GCN 1
s_1_2_GCN 0
z_1_2_GCN 1
s_1_3_GCN 0
z_1_3_GCN 1
s_1_4_GCN 2.4095827713608766e-02
z_1_4_GCN 0
s_1_5_GCN 5.4726786911487912e-02
z_1_5_GCN 0
s_1_6_GCN 2.0559313520789255e-01
z_1_6_GCN 0
s_1_7_GCN 0
z_1_7_GCN 1
s_1_8_GCN 0
z_1_8_GCN 1
s_1_9_GCN 0
z_1_9_GCN 1
s_1_10_GCN 0
z_1_10_GCN 1
s_1_11_GCN 0
z_1_11_GCN 1
s_1_12_GCN 2.1263800561428146e-02
z_1_12_GCN 0
s_1_13_GCN 1.6495451144874221e-01
z_1_13_GCN 0
s_1_14_GCN 0
z_1_14_GCN 1
s_1_15_GCN 0
z_1_15_GCN 1
s_1_16_GCN 2.0203471370041490e-01
z_1_16_GCN 0
s_1_17_GCN 0
z_1_17_GCN 1
s_1_18_GCN 0
z_1_18_GCN 1
s_1_19_GCN 0
z_1_19_GCN 1
s_1_20_GCN 0.776160910725598
z_1_20_GCN 0
s_1_21_GCN 6.7768767476082417e-02
z_1_21_GCN 0
s_1_22_GCN 3.6707946471870145e-01
z_1_22_GCN 0
s_1_23_GCN 2.4490813165903225e-01
z_1_23_GCN 0
s_1_24_GCN 4.5589824393391887e-01
z_1_24_GCN 0
s_1_25_GCN 0
z_1_25_GCN 1
s_1_26_GCN 0
z_1_26_GCN 1
s_1_27_GCN 0
z_1_27_GCN 1
s_1_28_GCN 0
z_1_28_GCN 1
s_1_29_GCN 0
z_1_29_GCN 1
s_1_30_GCN 0
z_1_30_GCN 1
s_1_31_GCN 0
z_1_31_GCN 1
s_2_0_GCN 0
z_2_0_GCN 1
s_2_1_GCN 0
z_2_1_GCN 1
s_2_2_GCN 0
z_2_2_GCN 1
s_2_3_GCN 0
z_2_3_GCN 1
s_2_4_GCN 2.4095826260543150e-02
z_2_4_GCN 0
s_2_5_GCN 5.4726783611265047e-02
z_2_5_GCN 0
s_2_6_GCN 2.0559312280988140e-01
z_2_6_GCN 0
s_2_7_GCN 0
z_2_7_GCN 1
s_2_8_GCN 0
z_2_8_GCN 1
s_2_9_GCN 0
z_2_9_GCN 1
s_2_10_GCN 0
z_2_10_GCN 1
s_2_11_GCN 0
z_2_11_GCN 1
s_2_12_GCN 2.1263799279143795e-02
z_2_12_GCN 0
s_2_13_GCN 1.6495450150138852e-01
z_2_13_GCN 0
s_2_14_GCN 0
z_2_14_GCN 1
s_2_15_GCN 0
z_2_15_GCN 1
s_2_16_GCN 2.0203470151698930e-01
z_2_16_GCN 0
s_2_17_GCN 0
z_2_17_GCN 1
s_2_18_GCN 0
z_2_18_GCN 1
s_2_19_GCN 0
z_2_19_GCN 1
s_2_20_GCN 7.7616086392028472e-01
z_2_20_GCN 0
s_2_21_GCN 6.7768773171590108e-02
z_2_21_GCN 0
s_2_22_GCN 3.6707944258248126e-01
z_2_22_GCN 0
s_2_23_GCN 2.4490811689018471e-01
z_2_23_GCN 0
s_2_24_GCN 4.5589821644160378e-01
z_2_24_GCN 0
s_2_25_GCN 2.5035555645851711e-08
z_2_25_GCN 1
s_2_26_GCN 0
z_2_26_GCN 1
s_2_27_GCN 1.7035695298872611e-08
z_2_27_GCN 1
s_2_28_GCN 0
z_2_28_GCN 1
s_2_29_GCN 0
z_2_29_GCN 1
s_2_30_GCN 0
z_2_30_GCN 1
s_2_31_GCN 0
z_2_31_GCN 1
s_3_0_GCN 0
z_3_0_GCN 1
s_3_1_GCN 0
z_3_1_GCN 1
s_3_2_GCN 0
z_3_2_GCN 1
s_3_3_GCN 0
z_3_3_GCN 1
s_3_4_GCN 2.4095827713614390e-02
z_3_4_GCN 0
s_3_5_GCN 5.4726786911478448e-02
z_3_5_GCN 0
s_3_6_GCN 2.0559313520790767e-01
z_3_6_GCN 0
s_3_7_GCN 0
z_3_7_GCN 1
s_3_8_GCN 0
z_3_8_GCN 1
s_3_9_GCN 4.3408682146202360e-08
z_3_9_GCN 1
s_3_10_GCN 0
z_3_10_GCN 1
s_3_11_GCN 0
z_3_11_GCN 1
s_3_12_GCN 2.1263800561421048e-02
z_3_12_GCN 0
s_3_13_GCN 1.6495451144873607e-01
z_3_13_GCN 0
s_3_14_GCN 0
z_3_14_GCN 1
s_3_15_GCN 0
z_3_15_GCN 1
s_3_16_GCN 2.0203471370041287e-01
z_3_16_GCN 0
s_3_17_GCN 0
z_3_17_GCN 1
s_3_18_GCN 0
z_3_18_GCN 1
s_3_19_GCN 0
z_3_19_GCN 1
s_3_20_GCN 7.7616091072560178e-01
z_3_20_GCN 0
s_3_21_GCN 6.7768642250847444e-02
z_3_21_GCN 0
s_3_22_GCN 3.6707946471870107e-01
z_3_22_GCN 0
s_3_23_GCN 2.4490813165904002e-01
z_3_23_GCN 0
s_3_24_GCN 4.5589824393393108e-01
z_3_24_GCN 0
s_3_25_GCN 0
z_3_25_GCN 1
s_3_26_GCN 0
z_3_26_GCN 1
s_3_27_GCN 0
z_3_27_GCN 1
s_3_28_GCN 0
z_3_28_GCN 1
s_3_29_GCN 0
z_3_29_GCN 1
s_3_30_GCN 0
z_3_30_GCN 1
s_3_31_GCN 0
z_3_31_GCN 1
s_4_0_GCN 0
z_4_0_GCN 1
s_4_1_GCN 0
z_4_1_GCN 1
s_4_2_GCN 0
z_4_2_GCN 1
s_4_3_GCN 0
z_4_3_GCN 1
s_4_4_GCN 2.4095827713609332e-02
z_4_4_GCN 0
s_4_5_GCN 5.4726786911487496e-02
z_4_5_GCN 0
s_4_6_GCN 2.0559313520789349e-01
z_4_6_GCN 0
s_4_7_GCN 0
z_4_7_GCN 1
s_4_8_GCN 0
z_4_8_GCN 1
s_4_9_GCN 0
z_4_9_GCN 1
s_4_10_GCN 0
z_4_10_GCN 1
s_4_11_GCN 0
z_4_11_GCN 1
s_4_12_GCN 2.1263800561427348e-02
z_4_12_GCN 0
s_4_13_GCN 1.6495451144874224e-01
z_4_13_GCN 0
s_4_14_GCN 0
z_4_14_GCN 1
s_4_15_GCN 0
z_4_15_GCN 1
s_4_16_GCN 2.0203471370041415e-01
z_4_16_GCN 0
s_4_17_GCN 0
z_4_17_GCN 1
s_4_18_GCN 0
z_4_18_GCN 1
s_4_19_GCN 0
z_4_19_GCN 1
s_4_20_GCN 0.776160910725599
z_4_20_GCN 0
s_4_21_GCN 6.7768767476083278e-02
z_4_21_GCN 0
s_4_22_GCN 3.6707946471870212e-01
z_4_22_GCN 0
s_4_23_GCN 2.4490813165903277e-01
z_4_23_GCN 0
s_4_24_GCN 4.5589824393392014e-01
z_4_24_GCN 0
s_4_25_GCN 0
z_4_25_GCN 1
s_4_26_GCN 0
z_4_26_GCN 1
s_4_27_GCN 0
z_4_27_GCN 1
s_4_28_GCN 0
z_4_28_GCN 1
s_4_29_GCN 0
z_4_29_GCN 1
s_4_30_GCN 0
z_4_30_GCN 1
s_4_31_GCN 0
z_4_31_GCN 1
s_5_0_GCN 0
z_5_0_GCN 1
s_5_1_GCN 0
z_5_1_GCN 1
s_5_2_GCN 0
z_5_2_GCN 1
s_5_3_GCN 0
z_5_3_GCN 1
s_5_4_GCN 2.4095784054749270e-02
z_5_4_GCN 0
s_5_5_GCN 5.4726827111463323e-02
z_5_5_GCN 0
s_5_6_GCN 2.0559309872648385e-01
z_5_6_GCN 0
s_5_7_GCN 0
z_5_7_GCN 1
s_5_8_GCN 0
z_5_8_GCN 1
s_5_9_GCN -4.83449845154937e-08
z_5_9_GCN 1
s_5_10_GCN 0
z_5_10_GCN 1
s_5_11_GCN 0
z_5_11_GCN 1
s_5_12_GCN 2.1263901449927403e-02
z_5_12_GCN 0
s_5_13_GCN 1.6495449283391056e-01
z_5_13_GCN 0
s_5_14_GCN 0
z_5_14_GCN 1
s_5_15_GCN 0
z_5_15_GCN 1
s_5_16_GCN 2.0203485282719333e-01
z_5_16_GCN 0
s_5_17_GCN 0
z_5_17_GCN 1
s_5_18_GCN 0
z_5_18_GCN 1
s_5_19_GCN 0
z_5_19_GCN 1
s_5_20_GCN 0.776160979652927
z_5_20_GCN 0
s_5_21_GCN 6.7768767476079822e-02
z_5_21_GCN 0
s_5_22_GCN 3.6707946653944945e-01
z_5_22_GCN 0
s_5_23_GCN 2.4490814688605131e-01
z_5_23_GCN 0
s_5_24_GCN 4.5589819148862731e-01
z_5_24_GCN 0
s_5_25_GCN 0
z_5_25_GCN 1
s_5_26_GCN 0
z_5_26_GCN 1
s_5_27_GCN -2.9685517313516060e-08
z_5_27_GCN 1
s_5_28_GCN 0
z_5_28_GCN 1
s_5_29_GCN 0
z_5_29_GCN 1
s_5_30_GCN 0
z_5_30_GCN 1
s_5_31_GCN 0
z_5_31_GCN 1
h[0] 1.5137553798398224e+00
h[1] 5.3025868400559020e+00
h[2] 3.3696478525764224e+00
h[3] 2.4662252095940360e+00
h[4] 0
h[5] 0
h[6] 0
h[7] 4.42849780246995
h[8] 4.3787794075182989e+00
h[9] 3.4011705073146353e-02
h[10] 4.0061646699354486e-01
h[11] 3.7544303004639943e+00
h[12] 0
h[13] 0
h[14] 1.2351378676167741e+00
h[15] 1.1348842796366529e-01
h[16] 0
h[17] 3.9679253016405776e+00
h[18] 1.4133431296403265e-01
h[19] 1.5443079199085927e+00
h[20] 0
h[21] 0
h[22] 0
h[23] 0
h[24] 0
h[25] 1.0527670837552112e+00
h[26] 0.979684932524658
h[27] 1.8205515891167825e+00
h[28] 2.7916258194930434e+00
h[29] 1.0645620357709922e+00
h[30] 3.8261086319116018e+00
h[31] 2.5363046007205021e+00
y 3.0179455169175395e+00
x_1_0_ANN 1.0533132726834527e+00
s_1_0_ANN 0
z_1_0_ANN 1
x_1_1_ANN 0
s_1_1_ANN 5.1614766280323932e-01
z_1_1_ANN 0
x_1_2_ANN 0
s_1_2_ANN 2.0199610999736031e+00
z_1_2_ANN 0
x_1_3_ANN 6.6941959370472981e+00
s_1_3_ANN 0
z_1_3_ANN 1
x_1_4_ANN 0
s_1_4_ANN 2.4176951307387138e+00
z_1_4_ANN 0
x_1_5_ANN 0
s_1_5_ANN 1.5222087069343304e+00
z_1_5_ANN 0
x_1_6_ANN 1.6854842234208947e-01
s_1_6_ANN 0
z_1_6_ANN 1
x_1_7_ANN 4.0868218017936888e+00
s_1_7_ANN 0
z_1_7_ANN 1
x_1_8_ANN 3.9864210081243003e+00
s_1_8_ANN 0
z_1_8_ANN 1
x_1_9_ANN 0
s_1_9_ANN 2.5602860802379492e+00
z_1_9_ANN 0
x_1_10_ANN 0
s_1_10_ANN 4.2186837530548560e-01
z_1_10_ANN 0
x_1_11_ANN 0
s_1_11_ANN 1.6437444665357803e+00
z_1_11_ANN 0
x_1_12_ANN 0
s_1_12_ANN 3.9806703256306047e-01
z_1_12_ANN 0
x_1_13_ANN 0
s_1_13_ANN 1.7596099249117589e+00
z_1_13_ANN 0
x_1_14_ANN 0
s_1_14_ANN 2.6070378016508672e-01
z_1_14_ANN 0
x_1_15_ANN 0
s_1_15_ANN 6.0660553072168655e-01
z_1_15_ANN 0
